120
1000
200
200
200
200
200
200
198
196
196
196
196
195
195
194
194
194
194
194
193
192
192
191
191
191
191
189
189
188
187
187
185
185
185
184
184
184
184
183
183
183
183
182
182
182
181
181
178
178
177
177
177
177
177
177
176
176
175
175
175
174
173
171
171
170
169
169
169
168
168
168
168
168
167
167
166
166
166
166
165
165
165
165
165
164
164
164
164
164
163
163
163
162
162
162
161
161
161
160
160
159
159
159
159
159
159
158
158
158
157
157
157
156
156
153
153
153
152
152
151
150
